p cnf 91 377
10 -21 22 69 -72 -77 88 0
10 -21 22 -69 -72 -77 88 0
3 4 19 -50 -51 68 0
12 13 -31 57 -78 -79 0
3 4 19 -50 -51 0
-3 -16 -23 -51 -89 0
-4 52 -61 82 -84 0
7 -43 45 46 60 0
-8 -60 70 83 88 0
10 11 -28 -34 57 0
11 26 -27 -28 34 0
12 -14 -31 57 -73 0
-13 66 -67 86 90 0
-16 -49 -50 -51 68 0
-18 -39 -40 -44 -55 0
20 -38 53 -54 -70 0
29 -30 -31 57 -73 0
29 -30 -31 58 -73 0
-3 -19 -23 -51 -89 0
-17 20 22 -72 -77 0
-21 22 41 -53 70 0
-30 -31 58 -76 -80 0
40 -43 45 46 60 0
1 42 45 83 0
1 69 70 83 0
-1 24 -32 -59 0
2 33 56 59 0
-2 -5 -6 61 0
-2 -5 -6 74 0
3 4 16 51 0
3 4 -50 51 0
3 24 -32 59 0
3 -32 56 59 0
4 52 82 -84 0
4 -63 78 84 0
4 -63 -78 84 0
-4 52 -61 78 0
-4 52 -61 -84 0
-6 -35 37 82 0
7 42 46 -60 0
7 45 48 55 0
8 -45 -48 55 0
10 21 -69 -72 0
13 -31 58 78 0
13 49 85 -86 0
-16 85 -89 91 0
19 23 -33 59 0
19 23 38 41 0
-19 -23 -27 -28 0
23 -33 -76 -80 0
23 -50 51 -91 0
38 54 70 72 0
3 66 -67 89 0
-4 -61 78 84 0
-4 -61 82 84 0
-5 -6 62 -65 0
-8 -43 60 -87 0
9 40 -43 -87 0
10 11 -28 34 0
11 26 -27 -34 0
13 85 -86 91 0
-16 -23 -89 91 0
-16 -51 -81 85 0
17 22 -44 -77 0
19 23 -74 -75 0
19 -50 -68 -91 0
20 41 -54 -72 0
20 -69 -70 88 0
22 53 71 -72 0
-22 41 70 -88 0
25 -32 56 59 0
-25 -74 -76 -80 0
42 46 83 -87 0
-42 46 60 -87 0
-69 70 -77 -88 0
1 24 59 0
1 59 -62 0
-1 8 -10 0
-1 8 -88 0
-1 24 -32 0
-1 32 -56 0
-1 -59 62 0
2 -35 59 0
2 59 -62 0
-2 -5 35 0
3 -66 -67 0
-3 -16 -50 0
-3 -16 67 0
-3 67 -68 0
4 52 78 0
-4 82 84 0
5 63 78 0
5 -78 84 0
5 -78 -84 0
-5 -33 52 0
-5 -52 -63 0
-5 62 -63 0
6 -33 -36 0
7 -47 55 0
-7 -42 -60 0
8 -46 64 0
-8 42 -83 0
-8 45 -64 0
-8 -45 48 0
9 45 -48 0
-9 -40 43 0
10 -33 -57 0
-10 -12 73 0
-10 -26 57 0
11 14 78 0
-11 -14 76 0
12 25 28 0
-12 78 -79 0
-12 -78 79 0
-13 -49 -68 0
-15 -30 57 0
-16 50 67 0
-16 67 91 0
17 19 39 0
17 23 48 0
17 44 77 0
-17 -18 -44 0
-17 -19 -40 0
18 41 42 0
-18 -38 -41 0
-18 -48 -64 0
-18 -54 81 0
19 21 69 0
19 -33 74 0
19 -74 -75 0
19 81 85 0
-19 -25 -59 0
-19 30 36 0
-19 -33 80 0
-19 -38 47 0
-19 47 -64 0
-19 -51 67 0
-19 67 -79 0
-19 86 -90 0
-20 -22 53 0
-20 70 77 0
22 -41 54 0
-22 -41 -48 0
23 26 34 0
23 -30 75 0
23 32 56 0
-23 25 80 0
-23 -34 -79 0
-24 -25 -26 0
-24 -27 -33 0
-24 35 59 0
25 27 34 0
25 75 76 0
-25 -74 -76 0
-26 -32 -56 0
-27 34 -57 0
-27 -34 57 0
28 -31 34 0
29 30 57 0
29 58 76 0
-29 30 73 0
32 56 61 0
-33 -35 59 0
-33 -36 37 0
-34 -57 -88 0
36 37 62 0
36 -37 63 0
-36 -37 -63 0
40 43 87 0
-41 -44 -72 0
43 -44 77 0
-44 48 -55 0
46 -48 64 0
47 -54 -64 0
50 66 67 0
-61 -78 -84 0
62 -63 78 0
-65 74 -82 0
66 -86 -90 0
-66 -86 90 0
1 10 83 88 0
4 -63 82 -84 0
12 26 -28 -31 0
1 8 0
1 10 0
1 24 0
1 -42 0
1 60 0
1 -62 0
1 63 0
1 70 0
1 88 0
-1 -2 0
-1 -9 0
-1 -42 0
-1 -56 0
-1 70 0
2 6 0
2 33 0
2 56 0
2 -61 0
2 -62 0
2 65 0
-2 -30 0
-2 37 0
-2 78 0
3 24 0
3 -32 0
3 44 0
3 51 0
3 56 0
3 59 0
3 68 0
3 -68 0
3 -90 0
-3 -28 0
-3 35 0
-3 67 0
-3 -89 0
4 -6 0
4 17 0
4 -52 0
4 61 0
4 68 0
4 -68 0
4 82 0
4 89 0
-4 -84 0
5 52 0
5 -52 0
5 78 0
5 -82 0
5 84 0
5 -84 0
-5 61 0
-5 -65 0
-5 82 0
6 35 0
6 -37 0
-6 36 0
7 -47 0
7 -48 0
7 60 0
7 -87 0
-7 -46 0
-7 87 0
8 64 0
8 -70 0
8 83 0
8 86 0
8 87 0
-8 -9 0
-8 27 0
-8 45 0
-8 -70 0
-8 -72 0
-8 -77 0
-8 87 0
9 16 0
9 51 0
9 64 0
9 -83 0
-9 -46 0
-9 -48 0
-9 -60 0
10 21 0
10 34 0
10 -34 0
10 -46 0
10 -60 0
10 -70 0
10 83 0
-10 -11 0
-10 14 0
-10 27 0
-10 -34 0
-10 56 0
-10 -83 0
11 12 0
11 15 0
11 -30 0
11 36 0
11 -76 0
-11 13 0
-11 31 0
-11 -57 0
-11 80 0
-11 -80 0
12 -19 0
12 58 0
12 73 0
-12 -13 0
-12 31 0
-12 -58 0
-12 -83 0
13 -65 0
13 -68 0
13 79 0
13 -90 0
-13 68 0
-13 81 0
-13 90 0
-13 -91 0
14 31 0
14 -57 0
14 -58 0
14 73 0
14 -78 0
14 79 0
14 -79 0
-14 -15 0
-14 58 0
-14 79 0
15 -29 0
15 31 0
15 -57 0
15 -58 0
-15 80 0
16 49 0
16 50 0
-16 -49 0
-16 50 0
-16 81 0
-16 -81 0
-16 86 0
17 18 0
17 60 0
17 -71 0
-17 38 0
-17 44 0
-17 77 0
18 46 0
18 47 0
18 54 0
18 69 0
-18 -47 0
-18 -53 0
-18 -55 0
-18 -60 0
-18 -69 0
19 32 0
19 40 0
19 42 0
19 47 0
19 54 0
19 -65 0
19 75 0
19 88 0
19 -91 0
-19 -25 0
-19 -47 0
-19 -52 0
-19 -60 0
-19 79 0
-19 81 0
-19 -81 0
-19 -82 0
-19 84 0
-19 -85 0
-19 -86 0
-19 89 0
-19 -89 0
-19 91 0
20 22 0
-20 21 0
-20 69 0
-20 70 0
-20 72 0
21 -42 0
21 -72 0
21 -88 0
-21 -41 0
-21 42 0
-21 -88 0
22 -69 0
-22 -53 0
-22 -71 0
